c This is QMaxSAT 2017 based on 14.07
c This is Glucose 3.0
c This is MiniSat 2.2.0
c WARNING: for repeatability, setting FPU to use double precision
c card = mrwto, comp = 0, pmodel = 0, narr = 22, mct = 76, verb = 0
cr firstCPXsol 0 0 0
c top = 189219
c |  Number of variables:    18818                                            |
c |  Number of clauses:      1538219                                          |
c |  Weight of hard clauses: 189219                                           |
c |  Number of soft clauses: 194700                                           |
c |  Number of unit soft clauses: 0                                           |
c |  Maximum Cardinality (by unit): 6348980      (0           )               |
c last restart ## conflicts  :  6 5280 
o 1354 | cpuTime 0.423831 s
c Sum of weights = 288590
c A number of soft clauses remained = 8850
c MRWTO encoding for Pseudo-Boolean Constraints
c sizeMax=1354
c No.0 Divisor=12	generated by pow1
c No.1 Divisor=12	generated by pow1
c No.2 Divisor=12	generated by pow1
c p0= 12	p1= 12	p2= 12	
c number of digits = 4
c linkingVar[0].size = 12, linkingVar[1].size = 12, linkingVar[2].size = 10, linkingVar[3].size = 1, 
c Pseudo-Boolean Constraints: 172893 variables and 1560552 clauses
c Sum of weights = 288590
c A number of soft clauses remained = 8850
c MRWTO encoding for Pseudo-Boolean Constraints
c sizeMax=1354
c No.0 Divisor=12	generated by pow1
c No.1 Divisor=12	generated by pow1
c No.2 Divisor=12	generated by pow1
c p0= 12	p1= 12	p2= 12	
c number of digits = 4
c linkingVar[0].size = 12, linkingVar[1].size = 12, linkingVar[2].size = 10, linkingVar[3].size = 1, 
c Pseudo-Boolean Constraints: 172893 variables and 1560552 clauses
c Sum of weights = 288590
c A number of soft clauses remained = 8850
c MRWTO encoding for Pseudo-Boolean Constraints
c sizeMax=1354
c No.0 Divisor=12	generated by pow1
c No.1 Divisor=12	generated by pow1
c No.2 Divisor=12	generated by pow1
c p0= 12	p1= 12	p2= 12	
c number of digits = 4
c linkingVar[0].size = 12, linkingVar[1].size = 12, linkingVar[2].size = 10, linkingVar[3].size = 1, 
c Pseudo-Boolean Constraints: 172893 variables and 1560552 clauses
c Sum of weights = 288590
c A number of soft clauses remained = 8850
c MRWTO encoding for Pseudo-Boolean Constraints
c sizeMax=1354
c No.0 Divisor=12	generated by pow1
c No.1 Divisor=12	generated by pow1
c No.2 Divisor=12	generated by pow1
c p0= 12	p1= 12	p2= 12	
c number of digits = 4
c linkingVar[0].size = 12, linkingVar[1].size = 12, linkingVar[2].size = 10, linkingVar[3].size = 1, 
c Pseudo-Boolean Constraints: 172893 variables and 1560552 clauses
c Sum of weights = 288590
c A number of soft clauses remained = 8850
c MRWTO encoding for Pseudo-Boolean Constraints
c sizeMax=1354
c No.0 Divisor=12	generated by pow1
c No.1 Divisor=12	generated by pow1
c No.2 Divisor=12	generated by pow1
c p0= 12	p1= 12	p2= 12	
c number of digits = 4
c linkingVar[0].size = 12, linkingVar[1].size = 12, linkingVar[2].size = 10, linkingVar[3].size = 1, 
c Pseudo-Boolean Constraints: 172893 variables and 1560552 clauses
c Sum of weights = 288590
c A number of soft clauses remained = 8850
c MRWTO encoding for Pseudo-Boolean Constraints
c sizeMax=1354
c No.0 Divisor=12	generated by pow1
c No.1 Divisor=12	generated by pow1
c No.2 Divisor=12	generated by pow1
c p0= 12	p1= 12	p2= 12	
c number of digits = 4
c linkingVar[0].size = 12, linkingVar[1].size = 12, linkingVar[2].size = 10, linkingVar[3].size = 1, 
c Pseudo-Boolean Constraints: 172893 variables and 1560552 clauses
c Sum of weights = 288590
c A number of soft clauses remained = 8850
c MRWTO encoding for Pseudo-Boolean Constraints
c sizeMax=1354
c No.0 Divisor=12	generated by pow1
c No.1 Divisor=12	generated by pow1
c No.2 Divisor=12	generated by pow1
c p0= 12	p1= 12	p2= 12	
c number of digits = 4
c linkingVar[0].size = 12, linkingVar[1].size = 12, linkingVar[2].size = 10, linkingVar[3].size = 1, 
c Pseudo-Boolean Constraints: 172893 variables and 1560552 clauses
c Sum of weights = 288590
c A number of soft clauses remained = 8850
c MRWTO encoding for Pseudo-Boolean Constraints
c sizeMax=1354
c No.0 Divisor=12	generated by pow1
c No.1 Divisor=12	generated by pow1
c No.2 Divisor=12	generated by pow1
c p0= 12	p1= 12	p2= 12	
c number of digits = 4
c linkingVar[0].size = 12, linkingVar[1].size = 12, linkingVar[2].size = 10, linkingVar[3].size = 1, 
c Pseudo-Boolean Constraints: 172893 variables and 1560552 clauses
c Sum of weights = 288590
c A number of soft clauses remained = 8850
c MRWTO encoding for Pseudo-Boolean Constraints
c sizeMax=1354
c No.0 Divisor=12	generated by pow1
c No.1 Divisor=12	generated by pow1
c No.2 Divisor=12	generated by pow1
c p0= 12	p1= 12	p2= 12	
c number of digits = 4
c linkingVar[0].size = 12, linkingVar[1].size = 12, linkingVar[2].size = 10, linkingVar[3].size = 1, 
c Pseudo-Boolean Constraints: 172893 variables and 1560552 clauses
c Sum of weights = 288590
c A number of soft clauses remained = 8850
c MRWTO encoding for Pseudo-Boolean Constraints
c sizeMax=1354
c No.0 Divisor=12	generated by pow1
c No.1 Divisor=12	generated by pow1
c No.2 Divisor=12	generated by pow1
c p0= 12	p1= 12	p2= 12	
c number of digits = 4
c linkingVar[0].size = 12, linkingVar[1].size = 12, linkingVar[2].size = 10, linkingVar[3].size = 1, 
c Pseudo-Boolean Constraints: 172893 variables and 1560552 clauses
c Sum of weights = 288590
c A number of soft clauses remained = 8850
c MRWTO encoding for Pseudo-Boolean Constraints
c sizeMax=1354
c No.0 Divisor=12	generated by pow1
c No.1 Divisor=12	generated by pow1
c No.2 Divisor=12	generated by pow1
c p0= 12	p1= 12	p2= 12	
c number of digits = 4
c linkingVar[0].size = 12, linkingVar[1].size = 12, linkingVar[2].size = 10, linkingVar[3].size = 1, 
c Pseudo-Boolean Constraints: 172893 variables and 1560552 clauses
c Sum of weights = 288590
c A number of soft clauses remained = 8850
c MRWTO encoding for Pseudo-Boolean Constraints
c sizeMax=1354
c No.0 Divisor=12	generated by pow1
c No.1 Divisor=12	generated by pow1
c No.2 Divisor=12	generated by pow1
c p0= 12	p1= 12	p2= 12	
c number of digits = 4
c linkingVar[0].size = 12, linkingVar[1].size = 12, linkingVar[2].size = 10, linkingVar[3].size = 1, 
c Pseudo-Boolean Constraints: 172893 variables and 1560552 clauses
c Sum of weights = 288590
c A number of soft clauses remained = 8850
c MRWTO encoding for Pseudo-Boolean Constraints
c sizeMax=1354
c No.0 Divisor=12	generated by pow1
c No.1 Divisor=12	generated by pow1
c No.2 Divisor=12	generated by pow1
c p0= 12	p1= 12	p2= 12	
c number of digits = 4
c linkingVar[0].size = 12, linkingVar[1].size = 12, linkingVar[2].size = 10, linkingVar[3].size = 1, 
c Pseudo-Boolean Constraints: 172893 variables and 1560552 clauses
c Sum of weights = 288590
c A number of soft clauses remained = 8850
c MRWTO encoding for Pseudo-Boolean Constraints
c sizeMax=1354
c No.0 Divisor=12	generated by pow1
c No.1 Divisor=12	generated by pow1
c No.2 Divisor=12	generated by pow1
c p0= 12	p1= 12	p2= 12	
c number of digits = 4
c linkingVar[0].size = 12, linkingVar[1].size = 12, linkingVar[2].size = 10, linkingVar[3].size = 1, 
c Pseudo-Boolean Constraints: 172893 variables and 1560552 clauses
c Sum of weights = 288590
c A number of soft clauses remained = 8850
c MRWTO encoding for Pseudo-Boolean Constraints
c sizeMax=1354
c No.0 Divisor=12	generated by pow1
c No.1 Divisor=12	generated by pow1
c No.2 Divisor=12	generated by pow1
c p0= 12	p1= 12	p2= 12	
c number of digits = 4
c linkingVar[0].size = 12, linkingVar[1].size = 12, linkingVar[2].size = 10, linkingVar[3].size = 1, 
c Pseudo-Boolean Constraints: 172893 variables and 1560552 clauses
c Sum of weights = 288590
c A number of soft clauses remained = 8850
c MRWTO encoding for Pseudo-Boolean Constraints
c sizeMax=1354
c No.0 Divisor=12	generated by pow1
c No.1 Divisor=12	generated by pow1
c No.2 Divisor=12	generated by pow1
c p0= 12	p1= 12	p2= 12	
c number of digits = 4
c linkingVar[0].size = 12, linkingVar[1].size = 12, linkingVar[2].size = 10, linkingVar[3].size = 1, 
c Pseudo-Boolean Constraints: 172893 variables and 1560552 clauses
c Sum of weights = 288590
c A number of soft clauses remained = 8850
c MRWTO encoding for Pseudo-Boolean Constraints
c sizeMax=1354
c No.0 Divisor=12	generated by pow1
c No.1 Divisor=12	generated by pow1
c No.2 Divisor=12	generated by pow1
c p0= 12	p1= 12	p2= 12	
c number of digits = 4
c linkingVar[0].size = 12, linkingVar[1].size = 12, linkingVar[2].size = 10, linkingVar[3].size = 1, 
c Pseudo-Boolean Constraints: 172893 variables and 1560552 clauses
c Sum of weights = 288590
c A number of soft clauses remained = 8850
c MRWTO encoding for Pseudo-Boolean Constraints
c sizeMax=1354
c No.0 Divisor=12	generated by pow1
c No.1 Divisor=12	generated by pow1
c No.2 Divisor=12	generated by pow1
c p0= 12	p1= 12	p2= 12	
c number of digits = 4
c linkingVar[0].size = 12, linkingVar[1].size = 12, linkingVar[2].size = 10, linkingVar[3].size = 1, 
c Pseudo-Boolean Constraints: 172893 variables and 1560552 clauses
c Sum of weights = 288590
c A number of soft clauses remained = 8850
c MRWTO encoding for Pseudo-Boolean Constraints
c sizeMax=1354
c No.0 Divisor=12	generated by pow1
c No.1 Divisor=12	generated by pow1
c No.2 Divisor=12	generated by pow1
c p0= 12	p1= 12	p2= 12	
c number of digits = 4
c linkingVar[0].size = 12, linkingVar[1].size = 12, linkingVar[2].size = 10, linkingVar[3].size = 1, 
c Pseudo-Boolean Constraints: 172893 variables and 1560552 clauses
c Sum of weights = 288590
c A number of soft clauses remained = 8850
c MRWTO encoding for Pseudo-Boolean Constraints
c sizeMax=1354
c No.0 Divisor=12	generated by pow1
c No.1 Divisor=12	generated by pow1
c No.2 Divisor=12	generated by pow1
c p0= 12	p1= 12	p2= 12	
c number of digits = 4
c linkingVar[0].size = 12, linkingVar[1].size = 12, linkingVar[2].size = 10, linkingVar[3].size = 1, 
c Pseudo-Boolean Constraints: 172893 variables and 1560552 clauses
c Sum of weights = 288590
c A number of soft clauses remained = 8850
c MRWTO encoding for Pseudo-Boolean Constraints
c sizeMax=1354
c No.0 Divisor=12	generated by pow1
c No.1 Divisor=12	generated by pow1
c No.2 Divisor=12	generated by pow1
c p0= 12	p1= 12	p2= 12	
c number of digits = 4
c linkingVar[0].size = 12, linkingVar[1].size = 12, linkingVar[2].size = 10, linkingVar[3].size = 1, 
c Pseudo-Boolean Constraints: 172893 variables and 1560552 clauses
c Sum of weights = 288590
c A number of soft clauses remained = 8850
c MRWTO encoding for Pseudo-Boolean Constraints
c sizeMax=1354
c No.0 Divisor=12	generated by pow1
c No.1 Divisor=12	generated by pow1
c No.2 Divisor=12	generated by pow1
c p0= 12	p1= 12	p2= 12	
c number of digits = 4
c linkingVar[0].size = 12, linkingVar[1].size = 12, linkingVar[2].size = 10, linkingVar[3].size = 1, 
c Pseudo-Boolean Constraints: 172893 variables and 1560552 clauses
c last restart ## conflicts  :  423 67851 
o 719 | cpuTime 17.1656 s
c last restart ## conflicts  :  444 41195 
o 426 | cpuTime 29.7716 s
c last restart ## conflicts  :  259 97405 
o 340 | cpuTime 54.5901 s
c last restart ## conflicts  :  358 38285 
o 339 | cpuTime 75.7231 s
c last restart ## conflicts  :  331 25572 
o 335 | cpuTime 151.288 s
c last restart ## conflicts  :  350 20651 
o 277 | cpuTime 169.149 s
c last restart ## conflicts  :  191 48639 
o 252 | cpuTime 263.88 s
c last restart ## conflicts  :  796 32915 
o 247 | cpuTime 305.633 s
c last restart ## conflicts  :  264 29071 
o 222 | cpuTime 468.641 s
c last restart ## conflicts  :  348 36061 
o 214 | cpuTime 1853.7 s
c last restart ## conflicts  :  241 24411 
o 206 | cpuTime 2348.28 s
c last restart ## conflicts  :  188 42269 
o 201 | cpuTime 3053.05 s
s UNKNOWN
c Search is stopped by a limit (maybe time-limit)
cr positiVarArr: [ | 32(1->11) | 128(1->10) | 282(1->67) | 314(1->2) | 482(1->73) | 549(1->43) | 621(1->18) | 755(1->55) | 855(1->58) | 901(1->7) | 1014(1->23) | 1150(1->62) | 1207(1->22) | 1332(1->50) | 1435(1->56) | 1489(1->13) | 1588(1->15) | 1740(1->70) | 1811(1->44) | 1868(1->4) | 2020(1->59) | 2118(1->60) | 2193(2->38) | 2240(3->1) | 2401(4->52) | 2429(5->1) | 2542(6->1) | 2666(7->26) | 2762(8->25) | 2839(9->5) | 2913(10->1) | 3036(11->8) | 3146(12->21) | 3236(13->14) | 3365(14->46) | 3443(15->27) | 3576(16->63) | 3686(17->76) | 3737(18->30) | 3841(19->37) | 3895(20->1) | 3998(21->1) | 4123(22->28) | 4188(23->1) | 4353(24->64) | 4398(25->12) | 4486(26->3) | 4560(27->1) | 4746(28->69) | 4819(29->45) | 4945(30->74) | 5040(31->72) | 5105(32->40) | 5152(33->1) | 5244(34->1) | 5413(35->57) | 5524(36->71) | 5586(37->36) | 5682(38->35) | 5776(39->32) | 5874(40->33) | 5967(41->29) | 6027(42->1) | 6127(43->1) | 6253(44->24) | 6346(45->20) | 6457(46->34) | 6507(47->1) | 6664(48->47) | 6707(49->1) | 6809(50->1) | 6949(51->41) | 7021(52->16) | 7167(53->65) | 7218(54->19) | 7293(55->1) | 7447(56->54) | 7471(57->1) | 7578(58->1) | 7750(59->66) | 7829(60->48) | 7887(61->9) | 8036(62->61) | 8058(63->1) | 8153(64->1) | 8255(65->1) | 8416(66->53) | 8511(67->51) | 8632(68->75) | 8655(69->1) | 8800(70->49) | 8854(71->6) | 9013(72->68) | 9073(73->31) | 9178(74->39) | 9253(75->17) | 9375(76->42) | ]
cr the 1-th chain: [ 1->11->8->25->12->21->1 ] (#non-depot=5) {#cumul.=6}
cr the 2-th chain: [ 1->10->1 ] (#non-depot=1) {#cumul.=7}
cr the 3-th chain: [ 1->67->51->41->29->45->20->1 ] (#non-depot=6) {#cumul.=13}
cr the 4-th chain: [ 1->2->38->35->57->1 ] (#non-depot=4) {#cumul.=17}
cr the 5-th chain: [ 1->73->31->72->68->75->17->76->42->1 ] (#non-depot=8) {#cumul.=25}
cr the 6-th chain: [ 1->43->1 ] (#non-depot=1) {#cumul.=26}
cr the 7-th chain: [ 1->18->30->74->39->32->40->33->1 ] (#non-depot=7) {#cumul.=33}
cr the 8-th chain: [ 1->55->1 ] (#non-depot=1) {#cumul.=34}
cr the 9-th chain: [ 1->58->1 ] (#non-depot=1) {#cumul.=35}
cr the 10-th chain: [ 1->7->26->3->1 ] (#non-depot=3) {#cumul.=38}
cr the 11-th chain: [ 1->23->1 ] (#non-depot=1) {#cumul.=39}
cr the 12-th chain: [ 1->62->61->9->5->1 ] (#non-depot=4) {#cumul.=43}
cr the 13-th chain: [ 1->22->28->69->1 ] (#non-depot=3) {#cumul.=46}
cr the 14-th chain: [ 1->50->1 ] (#non-depot=1) {#cumul.=47}
cr the 15-th chain: [ 1->56->54->19->37->36->71->6->1 ] (#non-depot=7) {#cumul.=54}
cr the 16-th chain: [ 1->13->14->46->34->1 ] (#non-depot=4) {#cumul.=58}
cr the 17-th chain: [ 1->15->27->1 ] (#non-depot=2) {#cumul.=60}
cr the 18-th chain: [ 1->70->49->1 ] (#non-depot=2) {#cumul.=62}
cr the 19-th chain: [ 1->44->24->64->1 ] (#non-depot=3) {#cumul.=65}
cr the 20-th chain: [ 1->4->52->16->63->1 ] (#non-depot=4) {#cumul.=69}
cr the 21-th chain: [ 1->59->66->53->65->1 ] (#non-depot=4) {#cumul.=73}
cr the 22-th chain: [ 1->60->48->47->1 ] (#non-depot=3) {#cumul.=76}
c Latest Answer = 0 by 13 loops
c restarts              : 16879
c conflicts             : 2437132        (678 /sec)
c decisions             : 142515480      (0.00 % random) (39628 /sec)
c propagations          : 34141583264    (9493344 /sec)
c conflict literals     : 433213504      (28.98 % deleted)
c Memory used           : 3937.00 MB
c CPU time              : 3596.37 s
